\Problem name: 

Minimize
OBJROW: 820 x_0_0 + 810 x_0_1 + 840 x_0_2 + 960 x_0_3 + 800 x_1_0 + 870 x_1_1 + 920 x_1_3 + 740 x_2_0 + 900 x_2_1 + 810 x_2_2
 + 840 x_2_3
Subject To
constr(0):  20 x_0_0 + 30 x_0_1 + 30 x_0_2 + 40 x_0_3 <= 75
constr(1):  20 x_1_0 + 30 x_1_1 + 30 x_1_2 + 40 x_1_3 <= 75
constr(2):  20 x_2_0 + 30 x_2_1 + 30 x_2_2 + 40 x_2_3 <= 45
constr(3):  x_0_0 + x_1_0 + x_2_0 = 1
constr(4):  x_0_1 + x_1_1 + x_2_1 = 1
constr(5):  x_0_2 + x_1_2 + x_2_2 = 1
constr(6):  x_0_3 + x_1_3 + x_2_3 = 1
constr(7):  x_0_0 <= 1
constr(8):  x_0_1 <= 1
constr(9):  x_0_2 <= 1
constr(10):  x_0_3 <= 1
constr(11):  x_1_0 <= 1
constr(12):  x_1_1 <= 1
constr(13):  x_1_2 <= 1
constr(14):  x_1_3 <= 1
constr(15):  x_2_0 <= 1
constr(16):  x_2_1 <= 1
constr(17):  x_2_2 <= 1
constr(18):  x_2_3 <= 1
constr(19):  x_1_2 = 0
Bounds
Integers
x_0_0 x_0_1 x_0_2 x_0_3 x_1_0 x_1_1 x_1_2 x_1_3 x_2_0 x_2_1 
x_2_2 x_2_3 
End
